p tw 82 92
1 2
2 13
3 4
4 5
5 6
6 7
7 8
8 9
9 10
10 11
11 12
12 35
13 24
14 15
15 16
16 17
17 18
18 19
19 20
20 21
21 22
21 59
22 23
23 25
23 50
24 35
25 26
26 27
26 47
27 28
28 29
28 40
29 30
30 31
30 37
31 32
32 33
32 43
33 34
34 36
34 50
35 46
36 16
37 38
38 39
39 16
40 41
41 42
42 16
43 44
44 45
45 16
46 57
47 48
48 49
49 16
50 51
51 52
52 53
53 54
54 55
55 56
56 58
57 68
58 59
59 60
60 61
61 62
62 63
62 65
63 64
64 65
64 77
65 66
66 67
67 69
68 79
68 14
69 70
70 71
71 72
72 73
73 74
74 75
75 76
76 77
77 78
78 80
79 82
80 81
82 3
82 14
